letting n =  10
letting blocks =  [[1, 5], [1, 6], [2, 5], [2, 10], [3, 4], [3, 8], [3, 9], [4, 4], [4, 8], [5, 2], [5, 7], [5, 8], [6, 6], [6, 9], [7, 3], [7, 4], [8, 3], [8, 8], [9, 3], [9, 5], [10, 1], [10, 4], [10, 5], [10, 6]]
